NAME: random16
TYPE: TSP
DIMENSION: 16
EDGE_WEIGHT_TYPE: EXPLICIT
EDGE_WEIGHT_FORMAT: FULL_MATRIX
EDGE_WEIGHT_SECTION
0 510 510 510 510 510 510 510 510 8 41 35 510 510 61 20
510 0 26 510 510 3 21 510 510 510 510 510 24 510 510 510
510 26 0 33 510 25 510 13 510 510 510 32 19 510 510 510
510 510 33 0 510 15 3 510 30 510 510 33 510 510 510 510
510 510 510 510 0 510 510 510 510 510 6 510 510 510 71 28
510 3 25 15 510 0 18 510 510 510 510 510 510 510 510 510
510 21 510 3 510 18 0 510 31 510 510 510 510 39 510 510
510 510 13 510 510 510 510 0 510 16 510 36 26 510 510 41
510 510 510 30 510 510 31 510 0 510 510 13 510 10 510 510
8 510 510 510 510 510 510 16 510 0 510 35 510 510 510 26
41 510 510 510 6 510 510 510 510 510 0 510 510 510 66 26
35 510 32 33 510 510 510 36 13 35 510 0 510 20 38 510
510 24 19 510 510 510 510 26 510 510 510 510 0 510 510 66
510 510 510 510 510 510 39 510 10 510 510 20 510 0 25 510
61 510 510 510 71 510 510 510 510 510 66 38 510 25 0 510
20 510 510 510 28 510 510 41 510 26 26 510 66 510 510 0
EOF
